c Sudoku solution
p cnf 729 0
156 0
225 0
279 0
287 0
332 0
365 0
442 0
488 0
527 0
534 0
628 0
635 0
654 0
672 0
512 0
691 0
731 0
767 0
647 0
357 0
816 0
864 0
919 0
715 0
117 0
613 0
411 0
922 0
823 0
724 0
946 0
971 0
474 0
497 0
455 0
463 0
845 0
851 0
752 0
749 0
169 0
121 0
381 0
329 0
236 0
133 0
426 0
439 0
262 0
241 0
548 0
561 0
666 0
559 0
689 0
343 0
258 0
144 0
293 0
214 0
318 0
953 0
968 0
937 0
838 0
877 0
376 0
394 0
984 0
995 0
882 0
899 0
185 0
192 0
178 0
575 0
773 0
786 0
798 0
583 0
596 0
